22
2 51 35 
2 28 7 
3 18 3 59 
2 16 56 
2 44 47 
3 26 19 4 
2 2 53 
3 32 49 37 
3 34 5 33 
3 13 20 21 
3 52 41 46 
3 48 50 11 
3 42 24 8 
3 30 60 22 
3 45 12 15 
3 57 29 31 
3 14 58 27 
3 38 1 25 
3 43 36 9 
3 55 17 23 
2 54 39 
3 40 10 6 
